164 198 123 36 182 91 172 31 13 152 138 119 9 62 40 122 37 51 67 116 133 159 74 107 46 79 28 42 35 147 49 93 130 167 85 10 33 108 166 47 15 60 100 80 81 137 88 142 129 158 192 135 141 11 4 174 50 76 170 140 104 177 69 18 184 98 44 12 109 103 134 193 59 145 121 61 16 171 24 128 162 132 2 185 30 161 148 82 66 71 136 139 180 99 197 58 53 195 163 102 110 186 56 168 23 20 175 178 57 125 144 7 54 191 25 68 83 126 179 90 183 21 194 199 45 117 63 29 75 19 188 160 120 72 64 118 27 38 150 111 14 190 173 48 43 77 3 131 73 70 115 55 157 124 169 187 176 156 155 96 106 143 34 87 97 105 127 153 65 113 114 151 92 146 6 189 52 181 89 5 32 1 94 101 8 22 86 0 26 165 149 196 112 78 84 95 39 17 41 154 

